(set-info :smt-lib-version 2.6)
(set-logic QF_LIA)
(set-info :source |
Alberto Griggio

|)
(set-info :category "random")
(set-info :status sat)
(declare-fun x0 () Int)
(declare-fun x1 () Int)
(declare-fun x2 () Int)
(declare-fun x3 () Int)
(declare-fun x4 () Int)
(declare-fun x5 () Int)
(declare-fun x6 () Int)
(declare-fun x7 () Int)
(declare-fun x8 () Int)
(declare-fun x9 () Int)
(declare-fun x10 () Int)
(declare-fun x11 () Int)
(declare-fun x12 () Int)
(declare-fun x13 () Int)
(declare-fun x14 () Int)
(declare-fun x15 () Int)
(declare-fun x16 () Int)
(declare-fun x17 () Int)
(declare-fun x18 () Int)
(declare-fun x19 () Int)
(declare-fun x20 () Int)
(declare-fun x21 () Int)
(declare-fun x22 () Int)
(declare-fun x23 () Int)
(declare-fun x24 () Int)
(declare-fun x25 () Int)
(declare-fun x26 () Int)
(declare-fun x27 () Int)
(declare-fun x28 () Int)
(declare-fun x29 () Int)
(declare-fun x30 () Int)
(declare-fun x31 () Int)
(declare-fun x32 () Int)
(declare-fun x33 () Int)
(declare-fun x34 () Int)
(declare-fun x35 () Int)
(declare-fun x36 () Int)
(declare-fun x37 () Int)
(declare-fun x38 () Int)
(declare-fun x39 () Int)
(assert (let ((?v_2 (* 0 x28)) (?v_3 (* 1 x15)) (?v_79 (* 1 x34)) (?v_60 (* 1 x6)) (?v_1 (* 0 x13)) (?v_4 (* 1 x18)) (?v_0 (* 0 x38)) (?v_55 (* 1 x0)) (?v_57 (* 1 x30)) (?v_13 (* 0 x3)) (?v_45 (* 0 x33)) (?v_25 (* 0 x23)) (?v_17 (* 0 x15)) (?v_59 (* 1 x17)) (?v_19 (* 1 x26)) (?v_21 (* 1 x22)) (?v_36 (* 0 x27)) (?v_14 (* 0 x19)) (?v_20 (* 1 x23)) (?v_112 (* 1 x1)) (?v_88 (* 0 x36)) (?v_63 (* 0 x37)) (?v_11 (* 0 x21)) (?v_12 (* 0 x9)) (?v_81 (* 1 x39)) (?v_5 (* 0 x30)) (?v_24 (* 1 x14)) (?v_23 (* 0 x4)) (?v_38 (* 1 x32)) (?v_15 (* 0 x25)) (?v_8 (* 0 x12)) (?v_9 (* 0 x22)) (?v_10 (* 0 x8)) (?v_31 (* 1 x25)) (?v_43 (* 1 x2)) (?v_78 (* 0 x31)) (?v_6 (* 0 x14)) (?v_49 (* 1 x29)) (?v_83 (* 0 x35)) (?v_35 (* 1 x16)) (?v_51 (* 1 x33)) (?v_27 (* 0 x32)) (?v_28 (* 0 x5)) (?v_90 (* 1 x10)) (?v_66 (* 0 x20)) (?v_48 (* 1 x28)) (?v_115 (* 1 x5)) (?v_44 (* 1 x9)) (?v_73 (* 1 x13)) (?v_71 (* 1 x3)) (?v_42 (* 0 x29)) (?v_105 (* 1 x27)) (?v_37 (* 0 x34)) (?v_104 (* 1 x8)) (?v_46 (* 0 x0)) (?v_47 (* 0 x10)) (?v_64 (* 1 x20)) (?v_62 (* 1 x38)) (?v_58 (* 0 x16)) (?v_7 (* 0 x24)) (?v_97 (* 1 x19)) (?v_61 (* 0 x11)) (?v_80 (* 0 x18)) (?v_68 (* 1 x7)) (?v_65 (* 0 x1)) (?v_86 (* 1 x11)) (?v_69 (* 0 x26)) (?v_39 (* 0 x6)) (?v_72 (* 0 x2)) (?v_74 (* 0 x17)) (?v_110 (* 1 x12)) (?v_89 (* 1 x4)) (?v_98 (* 1 x37)) (?v_117 (* 1 x35)) (?v_113 (* 1 x36)) (?v_101 (* 1 x24)) (?v_96 (* 0 x7)) (?v_107 (* 1 x31)) (?v_109 (* 1 x21)) (?v_29 (* 0 x39)) (?v_50 (* (- 1) x37)) (?v_118 (* (- 1) x25)) (?v_75 (* (- 1) x32)) (?v_77 (* (- 1) x20)) (?v_26 (* (- 1) x9)) (?v_22 (* (- 1) x11)) (?v_16 (* (- 1) x36)) (?v_34 (* (- 1) x3)) (?v_18 (* (- 1) x22)) (?v_67 (* (- 1) x30)) (?v_95 (* (- 1) x26)) (?v_33 (* (- 1) x28)) (?v_32 (* (- 1) x7)) (?v_30 (* (- 1) x1)) (?v_53 (* (- 1) x33)) (?v_41 (* (- 1) x19)) (?v_82 (* (- 1) x16)) (?v_56 (* (- 1) x31)) (?v_94 (* (- 1) x35)) (?v_116 (* (- 1) x12)) (?v_119 (* (- 1) x21)) (?v_52 (* (- 1) x27)) (?v_40 (* (- 1) x18)) (?v_108 (* (- 1) x29)) (?v_54 (* (- 1) x17)) (?v_84 (* (- 1) x13)) (?v_114 (* (- 1) x8)) (?v_91 (* (- 1) x5)) (?v_111 (* (- 1) x15)) (?v_93 (* (- 1) x6)) (?v_70 (* (- 1) x38)) (?v_87 (* (- 1) x24)) (?v_76 (* (- 1) x39)) (?v_103 (* (- 1) x2)) (?v_99 (* (- 1) x34)) (?v_100 (* (- 1) x4)) (?v_92 (* (- 1) x0)) (?v_85 (* (- 1) x23)) (?v_102 (* (- 1) x14)) (?v_106 (* (- 1) x10))) (and (<= (+ ?v_2 ?v_3 ?v_50 ?v_79 ?v_60 ?v_1 ?v_4 ?v_0 ?v_55 ?v_118 ?v_57 ?v_13 ?v_75 ?v_45 ?v_0 ?v_25 ?v_58 ?v_17 ?v_9 ?v_1 ?v_77 ?v_2 ?v_26 ?v_59 ?v_7 ?v_10 ?v_19 ?v_21 ?v_36 ?v_14 ?v_22 ?v_3 ?v_20 ?v_29 ?v_112 ?v_88 ?v_63 ?v_6 ?v_0 ?v_16) (- 1)) (<= (+ ?v_11 ?v_12 ?v_81 ?v_5 ?v_24 ?v_23 ?v_4 ?v_5 ?v_6 ?v_7 ?v_38 ?v_15 ?v_8 ?v_34 ?v_18 ?v_67 ?v_8 ?v_9 ?v_10 ?v_11 ?v_31 ?v_43 ?v_12 ?v_13 ?v_14 ?v_11 ?v_78 ?v_6 ?v_4 ?v_49 ?v_95 ?v_9 ?v_15 ?v_16 ?v_33 ?v_17 ?v_83 ?v_35 ?v_18 ?v_19) 1) (<= (+ ?v_20 ?v_51 ?v_32 ?v_21 ?v_22 ?v_23 ?v_24 ?v_25 ?v_27 ?v_28 ?v_26 ?v_1 ?v_90 ?v_1 ?v_27 ?v_30 ?v_25 ?v_46 ?v_25 ?v_65 ?v_53 ?v_66 ?v_48 ?v_28 ?v_41 ?v_115 ?v_29 ?v_30 ?v_44 ?v_31 ?v_9 ?v_32 ?v_73 ?v_82 ?v_1 ?v_3 ?v_33 ?v_15 ?v_6 ?v_71) (- 1)) (<= (+ ?v_21 ?v_34 ?v_42 ?v_13 ?v_105 ?v_35 ?v_56 ?v_37 ?v_27 ?v_94 ?v_36 ?v_116 ?v_36 ?v_119 ?v_23 ?v_9 ?v_37 ?v_52 ?v_12 ?v_39 ?v_38 ?v_10 ?v_40 ?v_39 ?v_40 ?v_108 ?v_41 ?v_1 ?v_54 ?v_37 ?v_9 ?v_47 ?v_36 ?v_42 ?v_22 ?v_43 ?v_104 ?v_9 ?v_0 ?v_44) 0) (<= (+ ?v_45 ?v_29 ?v_84 ?v_46 ?v_28 ?v_47 ?v_27 ?v_48 ?v_49 ?v_61 ?v_50 ?v_41 ?v_27 ?v_40 ?v_64 ?v_43 ?v_51 ?v_62 ?v_52 ?v_53 ?v_7 ?v_54 ?v_25 ?v_55 ?v_56 ?v_57 ?v_0 ?v_48 ?v_58 ?v_34 ?v_28 ?v_7 ?v_22 ?v_97 ?v_114 ?v_59 ?v_60 ?v_59 ?v_9 ?v_12) (- 1)) (<= (+ ?v_61 ?v_72 ?v_33 ?v_2 ?v_91 ?v_80 ?v_23 ?v_61 ?v_10 ?v_62 ?v_63 ?v_1 ?v_0 ?v_38 ?v_64 ?v_25 ?v_29 ?v_47 ?v_68 ?v_65 ?v_6 ?v_21 ?v_36 ?v_10 ?v_111 ?v_20 ?v_27 ?v_86 ?v_93 ?v_13 ?v_58 ?v_15 ?v_7 ?v_34 ?v_66 ?v_43 ?v_42 ?v_22 ?v_96 ?v_38) 0) (<= (+ ?v_9 ?v_33 ?v_24 ?v_6 ?v_67 ?v_68 ?v_17 ?v_58 ?v_19 ?v_70 ?v_14 ?v_9 ?v_69 ?v_12 ?v_58 ?v_87 ?v_45 ?v_56 ?v_76 ?v_39 ?v_69 ?v_70 ?v_54 ?v_9 ?v_71 ?v_35 ?v_23 ?v_103 ?v_15 ?v_47 ?v_72 ?v_15 ?v_74 ?v_99 ?v_72 ?v_21 ?v_20 ?v_72 ?v_15 ?v_9) 0) (<= (+ ?v_12 ?v_3 ?v_18 ?v_73 ?v_21 ?v_74 ?v_75 ?v_54 ?v_100 ?v_76 ?v_77 ?v_47 ?v_72 ?v_65 ?v_110 ?v_47 ?v_75 ?v_55 ?v_1 ?v_78 ?v_79 ?v_25 ?v_0 ?v_13 ?v_58 ?v_72 ?v_80 ?v_45 ?v_74 ?v_92 ?v_3 ?v_85 ?v_0 ?v_89 ?v_1 ?v_27 ?v_62 ?v_38 ?v_25 ?v_102) (- 1)) (<= (+ ?v_81 ?v_10 ?v_65 ?v_28 ?v_67 ?v_82 ?v_12 ?v_14 ?v_22 ?v_81 ?v_83 ?v_70 ?v_84 ?v_63 ?v_60 ?v_15 ?v_37 ?v_75 ?v_67 ?v_14 ?v_3 ?v_51 ?v_85 ?v_0 ?v_13 ?v_11 ?v_86 ?v_98 ?v_61 ?v_36 ?v_87 ?v_13 ?v_40 ?v_10 ?v_106 ?v_42 ?v_41 ?v_88 ?v_89 ?v_24) 0) (<= (+ ?v_80 ?v_50 ?v_65 ?v_83 ?v_12 ?v_42 ?v_55 ?v_117 ?v_113 ?v_18 ?v_10 ?v_14 ?v_5 ?v_26 ?v_84 ?v_15 ?v_60 ?v_34 ?v_14 ?v_65 ?v_0 ?v_66 ?v_70 ?v_8 ?v_51 ?v_72 ?v_90 ?v_11 ?v_85 ?v_18 ?v_23 ?v_80 ?v_39 ?v_74 ?v_55 ?v_13 ?v_68 ?v_91 ?v_92 ?v_61) 1) (<= (+ ?v_64 ?v_93 ?v_76 ?v_80 ?v_36 ?v_94 ?v_90 ?v_72 ?v_25 ?v_95 ?v_72 ?v_14 ?v_69 ?v_88 ?v_37 ?v_101 ?v_96 ?v_63 ?v_15 ?v_97 ?v_42 ?v_61 ?v_44 ?v_4 ?v_21 ?v_17 ?v_1 ?v_98 ?v_58 ?v_53 ?v_36 ?v_2 ?v_99 ?v_36 ?v_71 ?v_41 ?v_10 ?v_100 ?v_7 ?v_97) 0) (<= (+ ?v_86 ?v_66 ?v_17 ?v_101 ?v_10 ?v_12 ?v_27 ?v_88 ?v_63 ?v_6 ?v_62 ?v_5 ?v_45 ?v_15 ?v_8 ?v_15 ?v_73 ?v_9 ?v_14 ?v_56 ?v_77 ?v_107 ?v_37 ?v_75 ?v_91 ?v_16 ?v_102 ?v_9 ?v_88 ?v_42 ?v_55 ?v_103 ?v_5 ?v_2 ?v_66 ?v_0 ?v_8 ?v_0 ?v_46 ?v_76) 0) (<= (+ ?v_5 ?v_47 ?v_17 ?v_7 ?v_10 ?v_53 ?v_35 ?v_88 ?v_10 ?v_13 ?v_12 ?v_65 ?v_1 ?v_70 ?v_55 ?v_44 ?v_29 ?v_56 ?v_102 ?v_74 ?v_75 ?v_102 ?v_65 ?v_8 ?v_83 ?v_39 ?v_27 ?v_35 ?v_0 ?v_13 ?v_76 ?v_4 ?v_66 ?v_60 ?v_104 ?v_15 ?v_72 ?v_63 ?v_42 ?v_94) 0) (<= (+ ?v_109 ?v_89 ?v_1 ?v_5 ?v_17 ?v_105 ?v_96 ?v_16 ?v_0 ?v_75 ?v_53 ?v_7 ?v_9 ?v_20 ?v_60 ?v_106 ?v_36 ?v_55 ?v_75 ?v_0 ?v_15 ?v_89 ?v_71 ?v_91 ?v_65 ?v_46 ?v_70 ?v_0 ?v_25 ?v_69 ?v_83 ?v_107 ?v_74 ?v_60 ?v_11 ?v_108 ?v_74 ?v_45 ?v_58 ?v_109) 0) (<= (+ ?v_79 ?v_61 ?v_31 ?v_13 ?v_81 ?v_26 ?v_69 ?v_16 ?v_98 ?v_28 ?v_8 ?v_17 ?v_54 ?v_58 ?v_84 ?v_107 ?v_0 ?v_78 ?v_15 ?v_46 ?v_18 ?v_90 ?v_0 ?v_35 ?v_9 ?v_110 ?v_28 ?v_80 ?v_95 ?v_4 ?v_71 ?v_85 ?v_55 ?v_29 ?v_10 ?v_37 ?v_60 ?v_17 ?v_58 ?v_17) (- 1)) (<= (+ ?v_37 ?v_51 ?v_111 ?v_93 ?v_112 ?v_45 ?v_66 ?v_38 ?v_81 ?v_12 ?v_113 ?v_79 ?v_14 ?v_5 ?v_65 ?v_19 ?v_49 ?v_48 ?v_79 ?v_45 ?v_109 ?v_77 ?v_18 ?v_88 ?v_42 ?v_66 ?v_17 ?v_21 ?v_54 ?v_39 ?v_62 ?v_66 ?v_74 ?v_34 ?v_19 ?v_5 ?v_74 ?v_81 ?v_27 ?v_22) 1) (<= (+ ?v_60 ?v_8 ?v_56 ?v_1 ?v_5 ?v_5 ?v_92 ?v_72 ?v_5 ?v_21 ?v_39 ?v_80 ?v_90 ?v_58 ?v_86 ?v_11 ?v_29 ?v_17 ?v_70 ?v_95 ?v_40 ?v_26 ?v_37 ?v_78 ?v_47 ?v_106 ?v_75 ?v_47 ?v_27 ?v_39 ?v_98 ?v_106 ?v_47 ?v_2 ?v_67 ?v_0 ?v_72 ?v_83 ?v_69 ?v_81) 1) (<= (+ ?v_47 ?v_27 ?v_2 ?v_24 ?v_103 ?v_28 ?v_25 ?v_21 ?v_37 ?v_98 ?v_54 ?v_104 ?v_86 ?v_53 ?v_9 ?v_13 ?v_10 ?v_35 ?v_34 ?v_10 ?v_52 ?v_21 ?v_113 ?v_74 ?v_33 ?v_106 ?v_25 ?v_70 ?v_35 ?v_24 ?v_55 ?v_25 ?v_14 ?v_54 ?v_78 ?v_58 ?v_104 ?v_46 ?v_63 ?v_95) (- 1)) (<= (+ ?v_62 ?v_5 ?v_45 ?v_76 ?v_18 ?v_4 ?v_34 ?v_40 ?v_74 ?v_80 ?v_62 ?v_73 ?v_105 ?v_72 ?v_73 ?v_17 ?v_29 ?v_2 ?v_39 ?v_77 ?v_49 ?v_10 ?v_4 ?v_94 ?v_71 ?v_80 ?v_114 ?v_0 ?v_51 ?v_90 ?v_102 ?v_61 ?v_32 ?v_113 ?v_15 ?v_86 ?v_57 ?v_108 ?v_69 ?v_32) 1) (<= (+ ?v_105 ?v_0 ?v_52 ?v_69 ?v_43 ?v_58 ?v_73 ?v_11 ?v_81 ?v_39 ?v_3 ?v_23 ?v_11 ?v_3 ?v_36 ?v_63 ?v_23 ?v_96 ?v_32 ?v_5 ?v_80 ?v_9 ?v_45 ?v_59 ?v_11 ?v_80 ?v_67 ?v_68 ?v_6 ?v_100 ?v_48 ?v_105 ?v_62 ?v_27 ?v_115 ?v_49 ?v_79 ?v_45 ?v_38 ?v_115) 1) (<= (+ ?v_88 ?v_30 ?v_48 ?v_33 ?v_13 ?v_7 ?v_42 ?v_61 ?v_96 ?v_54 ?v_53 ?v_111 ?v_86 ?v_70 ?v_81 ?v_85 ?v_91 ?v_27 ?v_70 ?v_77 ?v_6 ?v_107 ?v_42 ?v_51 ?v_17 ?v_50 ?v_63 ?v_40 ?v_79 ?v_116 ?v_28 ?v_45 ?v_36 ?v_62 ?v_6 ?v_55 ?v_72 ?v_61 ?v_39 ?v_12) 0) (<= (+ ?v_55 ?v_41 ?v_88 ?v_74 ?v_15 ?v_13 ?v_16 ?v_66 ?v_72 ?v_65 ?v_59 ?v_30 ?v_17 ?v_71 ?v_2 ?v_27 ?v_100 ?v_47 ?v_42 ?v_7 ?v_10 ?v_104 ?v_30 ?v_36 ?v_41 ?v_30 ?v_74 ?v_42 ?v_34 ?v_5 ?v_36 ?v_23 ?v_61 ?v_42 ?v_86 ?v_46 ?v_93 ?v_80 ?v_82 ?v_117) 1) (<= (+ ?v_11 ?v_5 ?v_114 ?v_23 ?v_27 ?v_23 ?v_28 ?v_88 ?v_46 ?v_29 ?v_13 ?v_89 ?v_80 ?v_80 ?v_11 ?v_102 ?v_18 ?v_15 ?v_22 ?v_40 ?v_45 ?v_1 ?v_12 ?v_45 ?v_45 ?v_15 ?v_17 ?v_11 ?v_94 ?v_5 ?v_65 ?v_65 ?v_67 ?v_39 ?v_3 ?v_45 ?v_112 ?v_14 ?v_77 ?v_33) 1) (<= (+ ?v_14 ?v_44 ?v_114 ?v_72 ?v_34 ?v_105 ?v_10 ?v_90 ?v_16 ?v_31 ?v_106 ?v_42 ?v_80 ?v_37 ?v_29 ?v_72 ?v_118 ?v_30 ?v_68 ?v_25 ?v_89 ?v_0 ?v_105 ?v_97 ?v_64 ?v_87 ?v_87 ?v_29 ?v_112 ?v_80 ?v_8 ?v_83 ?v_10 ?v_64 ?v_7 ?v_27 ?v_78 ?v_6 ?v_107 ?v_28) 0) (<= (+ ?v_97 ?v_72 ?v_90 ?v_62 ?v_113 ?v_114 ?v_65 ?v_79 ?v_37 ?v_81 ?v_107 ?v_5 ?v_59 ?v_22 ?v_20 ?v_42 ?v_39 ?v_51 ?v_6 ?v_17 ?v_106 ?v_12 ?v_109 ?v_69 ?v_92 ?v_17 ?v_6 ?v_28 ?v_59 ?v_59 ?v_38 ?v_103 ?v_10 ?v_93 ?v_106 ?v_32 ?v_96 ?v_37 ?v_86 ?v_100) 0) (<= (+ ?v_86 ?v_76 ?v_40 ?v_39 ?v_80 ?v_73 ?v_66 ?v_46 ?v_38 ?v_52 ?v_61 ?v_112 ?v_106 ?v_82 ?v_52 ?v_103 ?v_88 ?v_1 ?v_85 ?v_34 ?v_97 ?v_78 ?v_12 ?v_25 ?v_97 ?v_63 ?v_117 ?v_76 ?v_11 ?v_31 ?v_39 ?v_54 ?v_118 ?v_27 ?v_23 ?v_92 ?v_58 ?v_55 ?v_95 ?v_42) (- 1)) (<= (+ ?v_42 ?v_38 ?v_111 ?v_117 ?v_25 ?v_25 ?v_11 ?v_27 ?v_11 ?v_30 ?v_78 ?v_28 ?v_9 ?v_26 ?v_37 ?v_115 ?v_42 ?v_36 ?v_14 ?v_18 ?v_100 ?v_1 ?v_34 ?v_5 ?v_110 ?v_117 ?v_42 ?v_15 ?v_59 ?v_14 ?v_88 ?v_10 ?v_26 ?v_23 ?v_57 ?v_73 ?v_7 ?v_62 ?v_63 ?v_88) (- 1)) (<= (+ ?v_89 ?v_37 ?v_94 ?v_90 ?v_53 ?v_2 ?v_44 ?v_86 ?v_63 ?v_115 ?v_104 ?v_83 ?v_27 ?v_57 ?v_45 ?v_33 ?v_115 ?v_42 ?v_64 ?v_96 ?v_40 ?v_2 ?v_75 ?v_53 ?v_73 ?v_69 ?v_58 ?v_11 ?v_20 ?v_118 ?v_54 ?v_22 ?v_118 ?v_20 ?v_39 ?v_74 ?v_69 ?v_113 ?v_58 ?v_91) 1) (<= (+ ?v_78 ?v_27 ?v_19 ?v_13 ?v_64 ?v_45 ?v_12 ?v_96 ?v_112 ?v_39 ?v_87 ?v_88 ?v_45 ?v_10 ?v_75 ?v_19 ?v_78 ?v_16 ?v_30 ?v_96 ?v_104 ?v_18 ?v_77 ?v_15 ?v_103 ?v_90 ?v_106 ?v_39 ?v_10 ?v_61 ?v_92 ?v_89 ?v_15 ?v_78 ?v_41 ?v_17 ?v_0 ?v_74 ?v_5 ?v_10) 0) (<= (+ ?v_39 ?v_39 ?v_62 ?v_38 ?v_69 ?v_38 ?v_96 ?v_109 ?v_105 ?v_15 ?v_70 ?v_54 ?v_70 ?v_78 ?v_39 ?v_63 ?v_9 ?v_46 ?v_90 ?v_38 ?v_72 ?v_66 ?v_82 ?v_109 ?v_60 ?v_105 ?v_53 ?v_34 ?v_67 ?v_22 ?v_81 ?v_31 ?v_25 ?v_9 ?v_10 ?v_6 ?v_87 ?v_81 ?v_29 ?v_23) 1) (<= (+ ?v_6 ?v_69 ?v_118 ?v_113 ?v_38 ?v_71 ?v_61 ?v_26 ?v_17 ?v_23 ?v_4 ?v_107 ?v_90 ?v_65 ?v_69 ?v_12 ?v_107 ?v_3 ?v_17 ?v_106 ?v_75 ?v_15 ?v_93 ?v_64 ?v_14 ?v_69 ?v_65 ?v_32 ?v_86 ?v_65 ?v_55 ?v_70 ?v_42 ?v_25 ?v_17 ?v_42 ?v_63 ?v_37 ?v_67 ?v_81) 0) (<= (+ ?v_104 ?v_30 ?v_87 ?v_66 ?v_31 ?v_27 ?v_45 ?v_72 ?v_66 ?v_118 ?v_112 ?v_102 ?v_11 ?v_72 ?v_106 ?v_5 ?v_87 ?v_25 ?v_46 ?v_105 ?v_45 ?v_46 ?v_29 ?v_86 ?v_49 ?v_118 ?v_115 ?v_41 ?v_103 ?v_53 ?v_7 ?v_30 ?v_33 ?v_74 ?v_6 ?v_41 ?v_15 ?v_51 ?v_42 ?v_94) 0) (<= (+ ?v_17 ?v_50 ?v_43 ?v_87 ?v_103 ?v_0 ?v_105 ?v_45 ?v_92 ?v_83 ?v_86 ?v_46 ?v_90 ?v_113 ?v_36 ?v_46 ?v_10 ?v_111 ?v_5 ?v_46 ?v_116 ?v_13 ?v_95 ?v_90 ?v_74 ?v_4 ?v_9 ?v_9 ?v_55 ?v_5 ?v_14 ?v_17 ?v_85 ?v_88 ?v_78 ?v_80 ?v_2 ?v_75 ?v_21 ?v_70) (- 1)) (<= (+ ?v_105 ?v_47 ?v_119 ?v_114 ?v_78 ?v_54 ?v_104 ?v_22 ?v_107 ?v_39 ?v_37 ?v_38 ?v_69 ?v_97 ?v_36 ?v_57 ?v_72 ?v_70 ?v_74 ?v_112 ?v_97 ?v_63 ?v_5 ?v_117 ?v_83 ?v_32 ?v_1 ?v_63 ?v_2 ?v_44 ?v_82 ?v_42 ?v_103 ?v_91 ?v_49 ?v_36 ?v_68 ?v_4 ?v_25 ?v_1) (- 1)) (<= (+ ?v_86 ?v_67 ?v_98 ?v_42 ?v_10 ?v_50 ?v_0 ?v_37 ?v_40 ?v_39 ?v_83 ?v_89 ?v_118 ?v_115 ?v_14 ?v_36 ?v_51 ?v_113 ?v_39 ?v_72 ?v_29 ?v_22 ?v_27 ?v_113 ?v_16 ?v_61 ?v_114 ?v_98 ?v_44 ?v_43 ?v_4 ?v_39 ?v_89 ?v_46 ?v_15 ?v_115 ?v_14 ?v_35 ?v_78 ?v_37) 0) (<= (+ ?v_47 ?v_81 ?v_75 ?v_118 ?v_25 ?v_11 ?v_22 ?v_20 ?v_6 ?v_72 ?v_34 ?v_66 ?v_64 ?v_54 ?v_32 ?v_72 ?v_30 ?v_71 ?v_65 ?v_1 ?v_37 ?v_63 ?v_8 ?v_5 ?v_88 ?v_50 ?v_106 ?v_50 ?v_36 ?v_58 ?v_19 ?v_48 ?v_73 ?v_21 ?v_82 ?v_52 ?v_36 ?v_113 ?v_11 ?v_16) (- 1)) (<= (+ ?v_81 ?v_79 ?v_103 ?v_55 ?v_88 ?v_111 ?v_14 ?v_61 ?v_19 ?v_113 ?v_36 ?v_70 ?v_78 ?v_5 ?v_70 ?v_16 ?v_23 ?v_112 ?v_10 ?v_12 ?v_1 ?v_58 ?v_45 ?v_49 ?v_109 ?v_16 ?v_11 ?v_23 ?v_70 ?v_96 ?v_19 ?v_17 ?v_46 ?v_87 ?v_39 ?v_35 ?v_41 ?v_88 ?v_42 ?v_7) 1) (<= (+ ?v_5 ?v_43 ?v_6 ?v_96 ?v_14 ?v_46 ?v_27 ?v_9 ?v_79 ?v_119 ?v_88 ?v_58 ?v_51 ?v_64 ?v_17 ?v_57 ?v_84 ?v_10 ?v_0 ?v_57 ?v_74 ?v_92 ?v_117 ?v_47 ?v_66 ?v_7 ?v_47 ?v_93 ?v_118 ?v_14 ?v_46 ?v_91 ?v_11 ?v_18 ?v_78 ?v_13 ?v_36 ?v_96 ?v_0 ?v_112) 0) (<= (+ ?v_8 ?v_87 ?v_66 ?v_42 ?v_30 ?v_87 ?v_1 ?v_80 ?v_63 ?v_89 ?v_59 ?v_94 ?v_29 ?v_29 ?v_32 ?v_32 ?v_44 ?v_61 ?v_62 ?v_9 ?v_90 ?v_29 ?v_117 ?v_113 ?v_10 ?v_83 ?v_87 ?v_101 ?v_25 ?v_101 ?v_4 ?v_40 ?v_78 ?v_96 ?v_96 ?v_17 ?v_51 ?v_59 ?v_99 ?v_53) (- 1)) (<= (+ ?v_80 ?v_58 ?v_50 ?v_53 ?v_47 ?v_54 ?v_17 ?v_82 ?v_26 ?v_4 ?v_34 ?v_91 ?v_36 ?v_30 ?v_25 ?v_55 ?v_42 ?v_11 ?v_7 ?v_18 ?v_117 ?v_85 ?v_14 ?v_5 ?v_3 ?v_57 ?v_52 ?v_25 ?v_115 ?v_62 ?v_6 ?v_87 ?v_13 ?v_5 ?v_72 ?v_58 ?v_13 ?v_4 ?v_63 ?v_9) 0) (<= (+ ?v_31 ?v_116 ?v_23 ?v_54 ?v_86 ?v_90 ?v_110 ?v_102 ?v_111 ?v_67 ?v_60 ?v_6 ?v_14 ?v_72 ?v_41 ?v_66 ?v_38 ?v_67 ?v_109 ?v_37 ?v_23 ?v_14 ?v_106 ?v_65 ?v_7 ?v_59 ?v_20 ?v_84 ?v_85 ?v_11 ?v_83 ?v_2 ?v_105 ?v_66 ?v_118 ?v_84 ?v_112 ?v_14 ?v_44 ?v_54) 0) (<= (+ ?v_55 ?v_33 ?v_46 ?v_62 ?v_45 ?v_108 ?v_79 ?v_25 ?v_35 ?v_17 ?v_65 ?v_12 ?v_55 ?v_112 ?v_13 ?v_104 ?v_56 ?v_24 ?v_88 ?v_39 ?v_27 ?v_84 ?v_58 ?v_3 ?v_37 ?v_21 ?v_70 ?v_8 ?v_31 ?v_3 ?v_96 ?v_72 ?v_86 ?v_100 ?v_36 ?v_72 ?v_119 ?v_35 ?v_4 ?v_37) 0) (<= (+ ?v_115 ?v_41 ?v_4 ?v_22 ?v_31 ?v_48 ?v_66 ?v_62 ?v_75 ?v_35 ?v_24 ?v_29 ?v_66 ?v_61 ?v_39 ?v_109 ?v_66 ?v_65 ?v_2 ?v_49 ?v_34 ?v_65 ?v_90 ?v_71 ?v_39 ?v_111 ?v_72 ?v_27 ?v_105 ?v_108 ?v_6 ?v_36 ?v_26 ?v_12 ?v_107 ?v_77 ?v_5 ?v_17 ?v_25 ?v_57) 0) (<= (+ ?v_65 ?v_36 ?v_85 ?v_96 ?v_4 ?v_49 ?v_48 ?v_26 ?v_27 ?v_91 ?v_23 ?v_57 ?v_81 ?v_46 ?v_30 ?v_112 ?v_65 ?v_45 ?v_28 ?v_47 ?v_50 ?v_95 ?v_106 ?v_39 ?v_98 ?v_83 ?v_20 ?v_7 ?v_39 ?v_62 ?v_107 ?v_15 ?v_27 ?v_13 ?v_12 ?v_16 ?v_44 ?v_8 ?v_55 ?v_117) (- 1)) (<= (+ ?v_11 ?v_67 ?v_57 ?v_8 ?v_22 ?v_64 ?v_78 ?v_60 ?v_102 ?v_69 ?v_78 ?v_6 ?v_15 ?v_25 ?v_119 ?v_42 ?v_46 ?v_67 ?v_98 ?v_66 ?v_12 ?v_73 ?v_31 ?v_38 ?v_80 ?v_105 ?v_73 ?v_100 ?v_10 ?v_73 ?v_21 ?v_74 ?v_66 ?v_18 ?v_105 ?v_76 ?v_98 ?v_88 ?v_22 ?v_114) 0) (<= (+ ?v_36 ?v_115 ?v_96 ?v_29 ?v_72 ?v_32 ?v_63 ?v_61 ?v_5 ?v_83 ?v_83 ?v_19 ?v_34 ?v_5 ?v_48 ?v_51 ?v_80 ?v_84 ?v_45 ?v_34 ?v_80 ?v_3 ?v_28 ?v_116 ?v_111 ?v_73 ?v_13 ?v_60 ?v_46 ?v_105 ?v_28 ?v_92 ?v_69 ?v_95 ?v_17 ?v_97 ?v_93 ?v_1 ?v_72 ?v_100) 0) (<= (+ ?v_64 ?v_114 ?v_93 ?v_52 ?v_36 ?v_46 ?v_2 ?v_110 ?v_44 ?v_76 ?v_96 ?v_69 ?v_116 ?v_90 ?v_13 ?v_62 ?v_42 ?v_5 ?v_117 ?v_5 ?v_100 ?v_70 ?v_62 ?v_119 ?v_79 ?v_80 ?v_72 ?v_32 ?v_2 ?v_108 ?v_85 ?v_114 ?v_58 ?v_28 ?v_90 ?v_22 ?v_76 ?v_89 ?v_67 ?v_76) 0) (<= (+ ?v_10 ?v_37 ?v_32 ?v_45 ?v_86 ?v_88 ?v_118 ?v_29 ?v_36 ?v_54 ?v_17 ?v_83 ?v_61 ?v_77 ?v_15 ?v_83 ?v_88 ?v_115 ?v_112 ?v_1 ?v_4 ?v_107 ?v_28 ?v_65 ?v_25 ?v_92 ?v_28 ?v_79 ?v_39 ?v_107 ?v_47 ?v_46 ?v_52 ?v_12 ?v_36 ?v_62 ?v_91 ?v_59 ?v_34 ?v_116) 0) (<= (+ ?v_97 ?v_77 ?v_88 ?v_26 ?v_16 ?v_107 ?v_25 ?v_44 ?v_0 ?v_52 ?v_83 ?v_1 ?v_28 ?v_28 ?v_88 ?v_69 ?v_62 ?v_65 ?v_31 ?v_57 ?v_47 ?v_6 ?v_110 ?v_11 ?v_21 ?v_71 ?v_97 ?v_70 ?v_96 ?v_2 ?v_83 ?v_55 ?v_107 ?v_33 ?v_47 ?v_13 ?v_27 ?v_60 ?v_104 ?v_37) 0) (<= (+ ?v_55 ?v_48 ?v_69 ?v_20 ?v_107 ?v_1 ?v_9 ?v_71 ?v_85 ?v_56 ?v_57 ?v_99 ?v_96 ?v_80 ?v_37 ?v_40 ?v_11 ?v_45 ?v_9 ?v_3 ?v_78 ?v_29 ?v_6 ?v_107 ?v_93 ?v_11 ?v_66 ?v_13 ?v_82 ?v_32 ?v_15 ?v_78 ?v_89 ?v_110 ?v_67 ?v_103 ?v_8 ?v_47 ?v_53 ?v_6) (- 1)))))
(check-sat)
(exit)
